499944
499944
485754
475589
475589
473163
453468
441173
441173
441173
441173
441173
441173
441173
441173
441173
441173
441173
441173
439732
439732
439732
439732
436830
421246
421246
421246
421246
419228
415271
408854
408854
408854
408854
408854
408854
408493
408493
408493
392906
392906
392906
392906
392906
392906
392906
392906
392906
392906
388402
388402
379096
379096
371866
371866
367729
367729
367729
367729
367729
367729
367629
367629
367629
367629
367629
364735
364735
358011
358011
358011
358011
358011
358011
358011
351657
351657
351657
351657
351657
351657
351657
351657
351657
350973
340599
340599
340599
340599
340599
340599
329688
329688
329688
329688
329688
329688
329688
329688
329688
